0 5043
2401 4918
4802 4807
7203 4710
9604 4624
12005 4539
14406 4480
16807 4431
19208 4404
21609 4377
24010 4358
26411 4303
28812 4269
31213 4246
33614 4229
36015 4220
38416 4198
40817 4162
43218 4143
45619 4132
48020 4121
50421 4110
52822 4097
55223 4093
57624 4085
60025 4074
62426 4055
64827 4048
67228 4031
69629 4029
72030 4028
74431 4027
76832 4026
79233 4019
81634 4014
84035 4012
86436 4011
122451 4008
127253 4006
129654 4005
132055 4000
177674 3998
180075 3992
206486 3988
216090 3987
237699 3985
240100 3974
256907 3973
307328 3971
